0,1
0,1
8,2
3,2
2,2
0,0
0,0
0,0
0,0
0,1
0,2
0,2
0,2
5,2
0,2
0,3
3,3
0,3
5,1
0,1
9,1
0,1
0,2
0,5
0,5
6,3
0,3
2,1
0,1
0,4
0,5
0,5
0,5
0,6
0,6
0,6
4,4
0,4
0,4
0,4
0,5
2,6
5,6
0,6
0,6
0,4
0,4
0,4
6,5
0,5
0,5
0,9
0,6
0,6
9,4
0,7
3,7
4,7
0,8
0,8
6,9
0,9
0,9
0,7
1,7
5,7
2,8
6,8
0,8
4,9
0,9
0,9
0,7
0,7
0,7
0,8
0,8
0,8
0,8
2,9
7,9